Instance: E076-10e.dat
Class:  5
   75 --- number of customers (no depot)
   16 --- number of vehicles
  225 --- number of items
Capacity - height - width of vehicles
   140     40     20
Node - x - y - demand
    0    40.0    40.0     0.0
    1    22.0    22.0    18.0
    2    36.0    26.0    26.0
    3    21.0    45.0    11.0
    4    45.0    35.0    30.0
    5    55.0    20.0    21.0
    6    33.0    34.0    19.0
    7    50.0    50.0    15.0
    8    55.0    45.0    16.0
    9    26.0    59.0    29.0
   10    40.0    66.0    26.0
   11    55.0    65.0    37.0
   12    35.0    51.0    16.0
   13    62.0    35.0    12.0
   14    62.0    57.0    31.0
   15    62.0    24.0     8.0
   16    21.0    36.0    19.0
   17    33.0    44.0    20.0
   18     9.0    56.0    13.0
   19    62.0    48.0    15.0
   20    66.0    14.0    22.0
   21    44.0    13.0    28.0
   22    26.0    13.0    12.0
   23    11.0    28.0     6.0
   24     7.0    43.0    27.0
   25    17.0    64.0    14.0
   26    41.0    46.0    18.0
   27    55.0    34.0    17.0
   28    35.0    16.0    29.0
   29    52.0    26.0    13.0
   30    43.0    26.0    22.0
   31    31.0    76.0    25.0
   32    22.0    53.0    28.0
   33    26.0    29.0    27.0
   34    50.0    40.0    19.0
   35    55.0    50.0    10.0
   36    54.0    10.0    12.0
   37    60.0    15.0    14.0
   38    47.0    66.0    24.0
   39    30.0    60.0    16.0
   40    30.0    50.0    33.0
   41    12.0    17.0    15.0
   42    15.0    14.0    11.0
   43    16.0    19.0    18.0
   44    21.0    48.0    17.0
   45    50.0    30.0    21.0
   46    51.0    42.0    27.0
   47    50.0    15.0    19.0
   48    48.0    21.0    20.0
   49    12.0    38.0     5.0
   50    15.0    56.0    22.0
   51    29.0    39.0    12.0
   52    54.0    38.0    19.0
   53    55.0    57.0    22.0
   54    67.0    41.0    16.0
   55    10.0    70.0     7.0
   56     6.0    25.0    26.0
   57    65.0    27.0    14.0
   58    40.0    60.0    21.0
   59    70.0    64.0    24.0
   60    64.0     4.0    13.0
   61    36.0     6.0    15.0
   62    30.0    20.0    18.0
   63    20.0    30.0    11.0
   64    15.0     5.0    28.0
   65    50.0    70.0     9.0
   66    57.0    72.0    37.0
   67    45.0    42.0    30.0
   68    38.0    33.0    10.0
   69    50.0     4.0     8.0
   70    66.0     8.0    11.0
   71    59.0     5.0     3.0
   72    35.0    60.0     1.0
   73    27.0    24.0     6.0
   74    40.0    20.0    10.0
   75    40.0    37.0    20.0
Node - number of items - h - w for each item
    0   0
    1   4    5    8    7    4   20    2   15    2
    2   3    4   11    6    9    9    3
    3   2    7    5    9    2
    4   1   17    4
    5   2    5    4    7    3
    6   3    6   10    9    4    7    2
    7   4   12    6    5    5    5    5    6    3
    8   3    9    4   11    3    8    2
    9   2    6    9    5    8
   10   3    7   11   23    2    8    2
   11   2    4   12    8    8
   12   4    5   10    9    5   22    3   11    3
   13   1    5   11
   14   2    5    7    7    2
   15   2    4    6    4    4
   16   3    7    5   12    4    9    3
   17   5    6    7   10    5   11    4    7    4   14    3
   18   5    8    9   10    6    7    6    8    5    7    3
   19   5    6   10    5   10    4    5   22    3    5    3
   20   1    8   10
   21   2   16    4   11    4
   22   3    6    8    9    3    8    3
   23   5    7   11    5    8    8    5    4    4    6    2
   24   5    6   12    7    5   16    4    8    4   17    2
   25   4    9    5   19    3   11    3    5    3
   26   5    6   12    5    8   11    6   21    4    8    4
   27   2   11    6    7    4
   28   2    5    6    6    5
   29   5    6   10    6   10   21    4    9    4    8    3
   30   4    6    8    6    8    7    4   11    2
   31   4    5   10    5    4   20    3    7    3
   32   2    4    7    7    4
   33   1    9    5
   34   1   22    3
   35   2   12    4    5    4
   36   5    7    8    9    6    5    4    5    3    4    2
   37   3   11    5    7    4    8    2
   38   4    5    6   12    3   11    3    5    3
   39   2    9    3   18    2
   40   1    5    5
   41   2    5    9   10    3
   42   5    6   12    4    7   23    4    6    4    8    3
   43   1    5    4
   44   1   10    4
   45   5    6   12    5    4   10    3    7    3    4    3
   46   5    5   12    6   11    6   10   23    2   22    2
   47   1   24    2
   48   2    5   12    6    3
   49   5    7    6   17    4    8    4    6    3    6    3
   50   3    8   10    6   10    6    6
   51   1    5    4
   52   4    7    8   20    4    4    4   18    3
   53   5    7    9    9    3    5    3   11    2    5    2
   54   5   19    4    8    4   10    3    9    3    5    3
   55   1    8    3
   56   3    4   10    8    4    7    4
   57   2   20    3    5    2
   58   1    4    9
   59   5    6    8   10    5    8    5   22    4    6    4
   60   2    8    4   16    2
   61   5   15    4    7    4   22    3    6    3    5    2
   62   5    5    8    9    6    5    5   20    3   12    3
   63   1    7    2
   64   2    9    6   23    4
   65   1    5    8
   66   2   18    3   10    2
   67   4    4   12   23    4   16    3    7    3
   68   5    4   10    6    6   12    3   11    3    7    3
   69   3    6   12    6   11    9    5
   70   3    8    9    4    9   16    4
   71   3   12    5    5    5   10    4
   72   4    4    9    4    9   15    3    5    3
   73   5    6    9    5    6    7    5    5    3    5    3
   74   3    7   10   21    4   16    3
   75   1   16    2
